NAME: GRASP_12_0
TYPE: TSP
COMMENT: line_12_0
DIMENSION: 12
EDGE_WEIGHT_TYPE: EUC_2D
NODE_COORD_SECTION
1 0.0 19.0
2 0.0 14.0
3 0.0 103.0
4 0.0 53.0
5 0.0 7.0
6 0.0 44.0
7 0.0 65.0
8 0.0 109.0
9 0.0 88.0
10 0.0 73.0
11 0.0 10.0
12 0.0 78.0
